c *********************************
c * Circuit generated by BenCGen
c *
c * CarrySkipAdder_108_108_108_InOut_G4T
c *
c * Ports with 1 gate(s): 29
c * Ports with 2 gate(s): 595
c * Ports with 4 gate(s): 27
c * Total gates: 651
c *********************************
p cnf 867 2194
1 327 0
-1 -327 0
1 -326 0
327 -326 0
-1 -327 326 0
1 109 -330 0
-1 109 330 0
1 -109 330 0
-1 -109 -330 0
330 326 -217 0
-330 326 217 0
330 -326 217 0
-330 -326 -217 0
326 -331 0
330 -331 0
-326 -330 331 0
109 -332 0
1 -332 0
-109 -1 332 0
-331 329 0
-332 329 0
331 332 -329 0
2 110 -334 0
-2 110 334 0
2 -110 334 0
-2 -110 -334 0
334 329 -218 0
-334 329 218 0
334 -329 218 0
-334 -329 -218 0
329 -335 0
334 -335 0
-329 -334 335 0
110 -336 0
2 -336 0
-110 -2 336 0
-335 333 0
-336 333 0
335 336 -333 0
3 111 -338 0
-3 111 338 0
3 -111 338 0
-3 -111 -338 0
338 333 -219 0
-338 333 219 0
338 -333 219 0
-338 -333 -219 0
333 -339 0
338 -339 0
-333 -338 339 0
111 -340 0
3 -340 0
-111 -3 340 0
-339 337 0
-340 337 0
339 340 -337 0
4 112 -341 0
-4 112 341 0
4 -112 341 0
-4 -112 -341 0
341 337 -220 0
-341 337 220 0
341 -337 220 0
-341 -337 -220 0
337 -342 0
341 -342 0
-337 -341 342 0
112 -343 0
4 -343 0
-112 -4 343 0
-342 328 0
-343 328 0
342 343 -328 0
330 -344 0
334 -344 0
338 -344 0
341 -344 0
-330 -334 -338 -341 344 0
343 -345 0
-343 345 0
326 -346 0
344 -346 0
-326 -344 346 0
-346 347 0
-328 347 0
346 328 -347 0
5 113 -350 0
-5 113 350 0
5 -113 350 0
-5 -113 -350 0
350 347 -221 0
-350 347 221 0
350 -347 221 0
-350 -347 -221 0
347 -351 0
350 -351 0
-347 -350 351 0
113 -352 0
5 -352 0
-113 -5 352 0
-351 349 0
-352 349 0
351 352 -349 0
6 114 -354 0
-6 114 354 0
6 -114 354 0
-6 -114 -354 0
354 349 -222 0
-354 349 222 0
354 -349 222 0
-354 -349 -222 0
349 -355 0
354 -355 0
-349 -354 355 0
114 -356 0
6 -356 0
-114 -6 356 0
-355 353 0
-356 353 0
355 356 -353 0
7 115 -358 0
-7 115 358 0
7 -115 358 0
-7 -115 -358 0
358 353 -223 0
-358 353 223 0
358 -353 223 0
-358 -353 -223 0
353 -359 0
358 -359 0
-353 -358 359 0
115 -360 0
7 -360 0
-115 -7 360 0
-359 357 0
-360 357 0
359 360 -357 0
8 116 -361 0
-8 116 361 0
8 -116 361 0
-8 -116 -361 0
361 357 -224 0
-361 357 224 0
361 -357 224 0
-361 -357 -224 0
357 -362 0
361 -362 0
-357 -361 362 0
116 -363 0
8 -363 0
-116 -8 363 0
-362 348 0
-363 348 0
362 363 -348 0
350 -364 0
354 -364 0
358 -364 0
361 -364 0
-350 -354 -358 -361 364 0
363 -365 0
-363 365 0
347 -366 0
364 -366 0
-347 -364 366 0
-366 367 0
-348 367 0
366 348 -367 0
9 117 -370 0
-9 117 370 0
9 -117 370 0
-9 -117 -370 0
370 367 -225 0
-370 367 225 0
370 -367 225 0
-370 -367 -225 0
367 -371 0
370 -371 0
-367 -370 371 0
117 -372 0
9 -372 0
-117 -9 372 0
-371 369 0
-372 369 0
371 372 -369 0
10 118 -374 0
-10 118 374 0
10 -118 374 0
-10 -118 -374 0
374 369 -226 0
-374 369 226 0
374 -369 226 0
-374 -369 -226 0
369 -375 0
374 -375 0
-369 -374 375 0
118 -376 0
10 -376 0
-118 -10 376 0
-375 373 0
-376 373 0
375 376 -373 0
11 119 -378 0
-11 119 378 0
11 -119 378 0
-11 -119 -378 0
378 373 -227 0
-378 373 227 0
378 -373 227 0
-378 -373 -227 0
373 -379 0
378 -379 0
-373 -378 379 0
119 -380 0
11 -380 0
-119 -11 380 0
-379 377 0
-380 377 0
379 380 -377 0
12 120 -381 0
-12 120 381 0
12 -120 381 0
-12 -120 -381 0
381 377 -228 0
-381 377 228 0
381 -377 228 0
-381 -377 -228 0
377 -382 0
381 -382 0
-377 -381 382 0
120 -383 0
12 -383 0
-120 -12 383 0
-382 368 0
-383 368 0
382 383 -368 0
370 -384 0
374 -384 0
378 -384 0
381 -384 0
-370 -374 -378 -381 384 0
383 -385 0
-383 385 0
367 -386 0
384 -386 0
-367 -384 386 0
-386 387 0
-368 387 0
386 368 -387 0
13 121 -390 0
-13 121 390 0
13 -121 390 0
-13 -121 -390 0
390 387 -229 0
-390 387 229 0
390 -387 229 0
-390 -387 -229 0
387 -391 0
390 -391 0
-387 -390 391 0
121 -392 0
13 -392 0
-121 -13 392 0
-391 389 0
-392 389 0
391 392 -389 0
14 122 -394 0
-14 122 394 0
14 -122 394 0
-14 -122 -394 0
394 389 -230 0
-394 389 230 0
394 -389 230 0
-394 -389 -230 0
389 -395 0
394 -395 0
-389 -394 395 0
122 -396 0
14 -396 0
-122 -14 396 0
-395 393 0
-396 393 0
395 396 -393 0
15 123 -398 0
-15 123 398 0
15 -123 398 0
-15 -123 -398 0
398 393 -231 0
-398 393 231 0
398 -393 231 0
-398 -393 -231 0
393 -399 0
398 -399 0
-393 -398 399 0
123 -400 0
15 -400 0
-123 -15 400 0
-399 397 0
-400 397 0
399 400 -397 0
16 124 -401 0
-16 124 401 0
16 -124 401 0
-16 -124 -401 0
401 397 -232 0
-401 397 232 0
401 -397 232 0
-401 -397 -232 0
397 -402 0
401 -402 0
-397 -401 402 0
124 -403 0
16 -403 0
-124 -16 403 0
-402 388 0
-403 388 0
402 403 -388 0
390 -404 0
394 -404 0
398 -404 0
401 -404 0
-390 -394 -398 -401 404 0
403 -405 0
-403 405 0
387 -406 0
404 -406 0
-387 -404 406 0
-406 407 0
-388 407 0
406 388 -407 0
17 125 -410 0
-17 125 410 0
17 -125 410 0
-17 -125 -410 0
410 407 -233 0
-410 407 233 0
410 -407 233 0
-410 -407 -233 0
407 -411 0
410 -411 0
-407 -410 411 0
125 -412 0
17 -412 0
-125 -17 412 0
-411 409 0
-412 409 0
411 412 -409 0
18 126 -414 0
-18 126 414 0
18 -126 414 0
-18 -126 -414 0
414 409 -234 0
-414 409 234 0
414 -409 234 0
-414 -409 -234 0
409 -415 0
414 -415 0
-409 -414 415 0
126 -416 0
18 -416 0
-126 -18 416 0
-415 413 0
-416 413 0
415 416 -413 0
19 127 -418 0
-19 127 418 0
19 -127 418 0
-19 -127 -418 0
418 413 -235 0
-418 413 235 0
418 -413 235 0
-418 -413 -235 0
413 -419 0
418 -419 0
-413 -418 419 0
127 -420 0
19 -420 0
-127 -19 420 0
-419 417 0
-420 417 0
419 420 -417 0
20 128 -421 0
-20 128 421 0
20 -128 421 0
-20 -128 -421 0
421 417 -236 0
-421 417 236 0
421 -417 236 0
-421 -417 -236 0
417 -422 0
421 -422 0
-417 -421 422 0
128 -423 0
20 -423 0
-128 -20 423 0
-422 408 0
-423 408 0
422 423 -408 0
410 -424 0
414 -424 0
418 -424 0
421 -424 0
-410 -414 -418 -421 424 0
423 -425 0
-423 425 0
407 -426 0
424 -426 0
-407 -424 426 0
-426 427 0
-408 427 0
426 408 -427 0
21 129 -430 0
-21 129 430 0
21 -129 430 0
-21 -129 -430 0
430 427 -237 0
-430 427 237 0
430 -427 237 0
-430 -427 -237 0
427 -431 0
430 -431 0
-427 -430 431 0
129 -432 0
21 -432 0
-129 -21 432 0
-431 429 0
-432 429 0
431 432 -429 0
22 130 -434 0
-22 130 434 0
22 -130 434 0
-22 -130 -434 0
434 429 -238 0
-434 429 238 0
434 -429 238 0
-434 -429 -238 0
429 -435 0
434 -435 0
-429 -434 435 0
130 -436 0
22 -436 0
-130 -22 436 0
-435 433 0
-436 433 0
435 436 -433 0
23 131 -438 0
-23 131 438 0
23 -131 438 0
-23 -131 -438 0
438 433 -239 0
-438 433 239 0
438 -433 239 0
-438 -433 -239 0
433 -439 0
438 -439 0
-433 -438 439 0
131 -440 0
23 -440 0
-131 -23 440 0
-439 437 0
-440 437 0
439 440 -437 0
24 132 -441 0
-24 132 441 0
24 -132 441 0
-24 -132 -441 0
441 437 -240 0
-441 437 240 0
441 -437 240 0
-441 -437 -240 0
437 -442 0
441 -442 0
-437 -441 442 0
132 -443 0
24 -443 0
-132 -24 443 0
-442 428 0
-443 428 0
442 443 -428 0
430 -444 0
434 -444 0
438 -444 0
441 -444 0
-430 -434 -438 -441 444 0
443 -445 0
-443 445 0
427 -446 0
444 -446 0
-427 -444 446 0
-446 447 0
-428 447 0
446 428 -447 0
25 133 -450 0
-25 133 450 0
25 -133 450 0
-25 -133 -450 0
450 447 -241 0
-450 447 241 0
450 -447 241 0
-450 -447 -241 0
447 -451 0
450 -451 0
-447 -450 451 0
133 -452 0
25 -452 0
-133 -25 452 0
-451 449 0
-452 449 0
451 452 -449 0
26 134 -454 0
-26 134 454 0
26 -134 454 0
-26 -134 -454 0
454 449 -242 0
-454 449 242 0
454 -449 242 0
-454 -449 -242 0
449 -455 0
454 -455 0
-449 -454 455 0
134 -456 0
26 -456 0
-134 -26 456 0
-455 453 0
-456 453 0
455 456 -453 0
27 135 -458 0
-27 135 458 0
27 -135 458 0
-27 -135 -458 0
458 453 -243 0
-458 453 243 0
458 -453 243 0
-458 -453 -243 0
453 -459 0
458 -459 0
-453 -458 459 0
135 -460 0
27 -460 0
-135 -27 460 0
-459 457 0
-460 457 0
459 460 -457 0
28 136 -461 0
-28 136 461 0
28 -136 461 0
-28 -136 -461 0
461 457 -244 0
-461 457 244 0
461 -457 244 0
-461 -457 -244 0
457 -462 0
461 -462 0
-457 -461 462 0
136 -463 0
28 -463 0
-136 -28 463 0
-462 448 0
-463 448 0
462 463 -448 0
450 -464 0
454 -464 0
458 -464 0
461 -464 0
-450 -454 -458 -461 464 0
463 -465 0
-463 465 0
447 -466 0
464 -466 0
-447 -464 466 0
-466 467 0
-448 467 0
466 448 -467 0
29 137 -470 0
-29 137 470 0
29 -137 470 0
-29 -137 -470 0
470 467 -245 0
-470 467 245 0
470 -467 245 0
-470 -467 -245 0
467 -471 0
470 -471 0
-467 -470 471 0
137 -472 0
29 -472 0
-137 -29 472 0
-471 469 0
-472 469 0
471 472 -469 0
30 138 -474 0
-30 138 474 0
30 -138 474 0
-30 -138 -474 0
474 469 -246 0
-474 469 246 0
474 -469 246 0
-474 -469 -246 0
469 -475 0
474 -475 0
-469 -474 475 0
138 -476 0
30 -476 0
-138 -30 476 0
-475 473 0
-476 473 0
475 476 -473 0
31 139 -478 0
-31 139 478 0
31 -139 478 0
-31 -139 -478 0
478 473 -247 0
-478 473 247 0
478 -473 247 0
-478 -473 -247 0
473 -479 0
478 -479 0
-473 -478 479 0
139 -480 0
31 -480 0
-139 -31 480 0
-479 477 0
-480 477 0
479 480 -477 0
32 140 -481 0
-32 140 481 0
32 -140 481 0
-32 -140 -481 0
481 477 -248 0
-481 477 248 0
481 -477 248 0
-481 -477 -248 0
477 -482 0
481 -482 0
-477 -481 482 0
140 -483 0
32 -483 0
-140 -32 483 0
-482 468 0
-483 468 0
482 483 -468 0
470 -484 0
474 -484 0
478 -484 0
481 -484 0
-470 -474 -478 -481 484 0
483 -485 0
-483 485 0
467 -486 0
484 -486 0
-467 -484 486 0
-486 487 0
-468 487 0
486 468 -487 0
33 141 -490 0
-33 141 490 0
33 -141 490 0
-33 -141 -490 0
490 487 -249 0
-490 487 249 0
490 -487 249 0
-490 -487 -249 0
487 -491 0
490 -491 0
-487 -490 491 0
141 -492 0
33 -492 0
-141 -33 492 0
-491 489 0
-492 489 0
491 492 -489 0
34 142 -494 0
-34 142 494 0
34 -142 494 0
-34 -142 -494 0
494 489 -250 0
-494 489 250 0
494 -489 250 0
-494 -489 -250 0
489 -495 0
494 -495 0
-489 -494 495 0
142 -496 0
34 -496 0
-142 -34 496 0
-495 493 0
-496 493 0
495 496 -493 0
35 143 -498 0
-35 143 498 0
35 -143 498 0
-35 -143 -498 0
498 493 -251 0
-498 493 251 0
498 -493 251 0
-498 -493 -251 0
493 -499 0
498 -499 0
-493 -498 499 0
143 -500 0
35 -500 0
-143 -35 500 0
-499 497 0
-500 497 0
499 500 -497 0
36 144 -501 0
-36 144 501 0
36 -144 501 0
-36 -144 -501 0
501 497 -252 0
-501 497 252 0
501 -497 252 0
-501 -497 -252 0
497 -502 0
501 -502 0
-497 -501 502 0
144 -503 0
36 -503 0
-144 -36 503 0
-502 488 0
-503 488 0
502 503 -488 0
490 -504 0
494 -504 0
498 -504 0
501 -504 0
-490 -494 -498 -501 504 0
503 -505 0
-503 505 0
487 -506 0
504 -506 0
-487 -504 506 0
-506 507 0
-488 507 0
506 488 -507 0
37 145 -510 0
-37 145 510 0
37 -145 510 0
-37 -145 -510 0
510 507 -253 0
-510 507 253 0
510 -507 253 0
-510 -507 -253 0
507 -511 0
510 -511 0
-507 -510 511 0
145 -512 0
37 -512 0
-145 -37 512 0
-511 509 0
-512 509 0
511 512 -509 0
38 146 -514 0
-38 146 514 0
38 -146 514 0
-38 -146 -514 0
514 509 -254 0
-514 509 254 0
514 -509 254 0
-514 -509 -254 0
509 -515 0
514 -515 0
-509 -514 515 0
146 -516 0
38 -516 0
-146 -38 516 0
-515 513 0
-516 513 0
515 516 -513 0
39 147 -518 0
-39 147 518 0
39 -147 518 0
-39 -147 -518 0
518 513 -255 0
-518 513 255 0
518 -513 255 0
-518 -513 -255 0
513 -519 0
518 -519 0
-513 -518 519 0
147 -520 0
39 -520 0
-147 -39 520 0
-519 517 0
-520 517 0
519 520 -517 0
40 148 -521 0
-40 148 521 0
40 -148 521 0
-40 -148 -521 0
521 517 -256 0
-521 517 256 0
521 -517 256 0
-521 -517 -256 0
517 -522 0
521 -522 0
-517 -521 522 0
148 -523 0
40 -523 0
-148 -40 523 0
-522 508 0
-523 508 0
522 523 -508 0
510 -524 0
514 -524 0
518 -524 0
521 -524 0
-510 -514 -518 -521 524 0
523 -525 0
-523 525 0
507 -526 0
524 -526 0
-507 -524 526 0
-526 527 0
-508 527 0
526 508 -527 0
41 149 -530 0
-41 149 530 0
41 -149 530 0
-41 -149 -530 0
530 527 -257 0
-530 527 257 0
530 -527 257 0
-530 -527 -257 0
527 -531 0
530 -531 0
-527 -530 531 0
149 -532 0
41 -532 0
-149 -41 532 0
-531 529 0
-532 529 0
531 532 -529 0
42 150 -534 0
-42 150 534 0
42 -150 534 0
-42 -150 -534 0
534 529 -258 0
-534 529 258 0
534 -529 258 0
-534 -529 -258 0
529 -535 0
534 -535 0
-529 -534 535 0
150 -536 0
42 -536 0
-150 -42 536 0
-535 533 0
-536 533 0
535 536 -533 0
43 151 -538 0
-43 151 538 0
43 -151 538 0
-43 -151 -538 0
538 533 -259 0
-538 533 259 0
538 -533 259 0
-538 -533 -259 0
533 -539 0
538 -539 0
-533 -538 539 0
151 -540 0
43 -540 0
-151 -43 540 0
-539 537 0
-540 537 0
539 540 -537 0
44 152 -541 0
-44 152 541 0
44 -152 541 0
-44 -152 -541 0
541 537 -260 0
-541 537 260 0
541 -537 260 0
-541 -537 -260 0
537 -542 0
541 -542 0
-537 -541 542 0
152 -543 0
44 -543 0
-152 -44 543 0
-542 528 0
-543 528 0
542 543 -528 0
530 -544 0
534 -544 0
538 -544 0
541 -544 0
-530 -534 -538 -541 544 0
543 -545 0
-543 545 0
527 -546 0
544 -546 0
-527 -544 546 0
-546 547 0
-528 547 0
546 528 -547 0
45 153 -550 0
-45 153 550 0
45 -153 550 0
-45 -153 -550 0
550 547 -261 0
-550 547 261 0
550 -547 261 0
-550 -547 -261 0
547 -551 0
550 -551 0
-547 -550 551 0
153 -552 0
45 -552 0
-153 -45 552 0
-551 549 0
-552 549 0
551 552 -549 0
46 154 -554 0
-46 154 554 0
46 -154 554 0
-46 -154 -554 0
554 549 -262 0
-554 549 262 0
554 -549 262 0
-554 -549 -262 0
549 -555 0
554 -555 0
-549 -554 555 0
154 -556 0
46 -556 0
-154 -46 556 0
-555 553 0
-556 553 0
555 556 -553 0
47 155 -558 0
-47 155 558 0
47 -155 558 0
-47 -155 -558 0
558 553 -263 0
-558 553 263 0
558 -553 263 0
-558 -553 -263 0
553 -559 0
558 -559 0
-553 -558 559 0
155 -560 0
47 -560 0
-155 -47 560 0
-559 557 0
-560 557 0
559 560 -557 0
48 156 -561 0
-48 156 561 0
48 -156 561 0
-48 -156 -561 0
561 557 -264 0
-561 557 264 0
561 -557 264 0
-561 -557 -264 0
557 -562 0
561 -562 0
-557 -561 562 0
156 -563 0
48 -563 0
-156 -48 563 0
-562 548 0
-563 548 0
562 563 -548 0
550 -564 0
554 -564 0
558 -564 0
561 -564 0
-550 -554 -558 -561 564 0
563 -565 0
-563 565 0
547 -566 0
564 -566 0
-547 -564 566 0
-566 567 0
-548 567 0
566 548 -567 0
49 157 -570 0
-49 157 570 0
49 -157 570 0
-49 -157 -570 0
570 567 -265 0
-570 567 265 0
570 -567 265 0
-570 -567 -265 0
567 -571 0
570 -571 0
-567 -570 571 0
157 -572 0
49 -572 0
-157 -49 572 0
-571 569 0
-572 569 0
571 572 -569 0
50 158 -574 0
-50 158 574 0
50 -158 574 0
-50 -158 -574 0
574 569 -266 0
-574 569 266 0
574 -569 266 0
-574 -569 -266 0
569 -575 0
574 -575 0
-569 -574 575 0
158 -576 0
50 -576 0
-158 -50 576 0
-575 573 0
-576 573 0
575 576 -573 0
51 159 -578 0
-51 159 578 0
51 -159 578 0
-51 -159 -578 0
578 573 -267 0
-578 573 267 0
578 -573 267 0
-578 -573 -267 0
573 -579 0
578 -579 0
-573 -578 579 0
159 -580 0
51 -580 0
-159 -51 580 0
-579 577 0
-580 577 0
579 580 -577 0
52 160 -581 0
-52 160 581 0
52 -160 581 0
-52 -160 -581 0
581 577 -268 0
-581 577 268 0
581 -577 268 0
-581 -577 -268 0
577 -582 0
581 -582 0
-577 -581 582 0
160 -583 0
52 -583 0
-160 -52 583 0
-582 568 0
-583 568 0
582 583 -568 0
570 -584 0
574 -584 0
578 -584 0
581 -584 0
-570 -574 -578 -581 584 0
583 -585 0
-583 585 0
567 -586 0
584 -586 0
-567 -584 586 0
-586 587 0
-568 587 0
586 568 -587 0
53 161 -590 0
-53 161 590 0
53 -161 590 0
-53 -161 -590 0
590 587 -269 0
-590 587 269 0
590 -587 269 0
-590 -587 -269 0
587 -591 0
590 -591 0
-587 -590 591 0
161 -592 0
53 -592 0
-161 -53 592 0
-591 589 0
-592 589 0
591 592 -589 0
54 162 -594 0
-54 162 594 0
54 -162 594 0
-54 -162 -594 0
594 589 -270 0
-594 589 270 0
594 -589 270 0
-594 -589 -270 0
589 -595 0
594 -595 0
-589 -594 595 0
162 -596 0
54 -596 0
-162 -54 596 0
-595 593 0
-596 593 0
595 596 -593 0
55 163 -598 0
-55 163 598 0
55 -163 598 0
-55 -163 -598 0
598 593 -271 0
-598 593 271 0
598 -593 271 0
-598 -593 -271 0
593 -599 0
598 -599 0
-593 -598 599 0
163 -600 0
55 -600 0
-163 -55 600 0
-599 597 0
-600 597 0
599 600 -597 0
56 164 -601 0
-56 164 601 0
56 -164 601 0
-56 -164 -601 0
601 597 -272 0
-601 597 272 0
601 -597 272 0
-601 -597 -272 0
597 -602 0
601 -602 0
-597 -601 602 0
164 -603 0
56 -603 0
-164 -56 603 0
-602 588 0
-603 588 0
602 603 -588 0
590 -604 0
594 -604 0
598 -604 0
601 -604 0
-590 -594 -598 -601 604 0
603 -605 0
-603 605 0
587 -606 0
604 -606 0
-587 -604 606 0
-606 607 0
-588 607 0
606 588 -607 0
57 165 -610 0
-57 165 610 0
57 -165 610 0
-57 -165 -610 0
610 607 -273 0
-610 607 273 0
610 -607 273 0
-610 -607 -273 0
607 -611 0
610 -611 0
-607 -610 611 0
165 -612 0
57 -612 0
-165 -57 612 0
-611 609 0
-612 609 0
611 612 -609 0
58 166 -614 0
-58 166 614 0
58 -166 614 0
-58 -166 -614 0
614 609 -274 0
-614 609 274 0
614 -609 274 0
-614 -609 -274 0
609 -615 0
614 -615 0
-609 -614 615 0
166 -616 0
58 -616 0
-166 -58 616 0
-615 613 0
-616 613 0
615 616 -613 0
59 167 -618 0
-59 167 618 0
59 -167 618 0
-59 -167 -618 0
618 613 -275 0
-618 613 275 0
618 -613 275 0
-618 -613 -275 0
613 -619 0
618 -619 0
-613 -618 619 0
167 -620 0
59 -620 0
-167 -59 620 0
-619 617 0
-620 617 0
619 620 -617 0
60 168 -621 0
-60 168 621 0
60 -168 621 0
-60 -168 -621 0
621 617 -276 0
-621 617 276 0
621 -617 276 0
-621 -617 -276 0
617 -622 0
621 -622 0
-617 -621 622 0
168 -623 0
60 -623 0
-168 -60 623 0
-622 608 0
-623 608 0
622 623 -608 0
610 -624 0
614 -624 0
618 -624 0
621 -624 0
-610 -614 -618 -621 624 0
623 -625 0
-623 625 0
607 -626 0
624 -626 0
-607 -624 626 0
-626 627 0
-608 627 0
626 608 -627 0
61 169 -630 0
-61 169 630 0
61 -169 630 0
-61 -169 -630 0
630 627 -277 0
-630 627 277 0
630 -627 277 0
-630 -627 -277 0
627 -631 0
630 -631 0
-627 -630 631 0
169 -632 0
61 -632 0
-169 -61 632 0
-631 629 0
-632 629 0
631 632 -629 0
62 170 -634 0
-62 170 634 0
62 -170 634 0
-62 -170 -634 0
634 629 -278 0
-634 629 278 0
634 -629 278 0
-634 -629 -278 0
629 -635 0
634 -635 0
-629 -634 635 0
170 -636 0
62 -636 0
-170 -62 636 0
-635 633 0
-636 633 0
635 636 -633 0
63 171 -638 0
-63 171 638 0
63 -171 638 0
-63 -171 -638 0
638 633 -279 0
-638 633 279 0
638 -633 279 0
-638 -633 -279 0
633 -639 0
638 -639 0
-633 -638 639 0
171 -640 0
63 -640 0
-171 -63 640 0
-639 637 0
-640 637 0
639 640 -637 0
64 172 -641 0
-64 172 641 0
64 -172 641 0
-64 -172 -641 0
641 637 -280 0
-641 637 280 0
641 -637 280 0
-641 -637 -280 0
637 -642 0
641 -642 0
-637 -641 642 0
172 -643 0
64 -643 0
-172 -64 643 0
-642 628 0
-643 628 0
642 643 -628 0
630 -644 0
634 -644 0
638 -644 0
641 -644 0
-630 -634 -638 -641 644 0
643 -645 0
-643 645 0
627 -646 0
644 -646 0
-627 -644 646 0
-646 647 0
-628 647 0
646 628 -647 0
65 173 -650 0
-65 173 650 0
65 -173 650 0
-65 -173 -650 0
650 647 -281 0
-650 647 281 0
650 -647 281 0
-650 -647 -281 0
647 -651 0
650 -651 0
-647 -650 651 0
173 -652 0
65 -652 0
-173 -65 652 0
-651 649 0
-652 649 0
651 652 -649 0
66 174 -654 0
-66 174 654 0
66 -174 654 0
-66 -174 -654 0
654 649 -282 0
-654 649 282 0
654 -649 282 0
-654 -649 -282 0
649 -655 0
654 -655 0
-649 -654 655 0
174 -656 0
66 -656 0
-174 -66 656 0
-655 653 0
-656 653 0
655 656 -653 0
67 175 -658 0
-67 175 658 0
67 -175 658 0
-67 -175 -658 0
658 653 -283 0
-658 653 283 0
658 -653 283 0
-658 -653 -283 0
653 -659 0
658 -659 0
-653 -658 659 0
175 -660 0
67 -660 0
-175 -67 660 0
-659 657 0
-660 657 0
659 660 -657 0
68 176 -661 0
-68 176 661 0
68 -176 661 0
-68 -176 -661 0
661 657 -284 0
-661 657 284 0
661 -657 284 0
-661 -657 -284 0
657 -662 0
661 -662 0
-657 -661 662 0
176 -663 0
68 -663 0
-176 -68 663 0
-662 648 0
-663 648 0
662 663 -648 0
650 -664 0
654 -664 0
658 -664 0
661 -664 0
-650 -654 -658 -661 664 0
663 -665 0
-663 665 0
647 -666 0
664 -666 0
-647 -664 666 0
-666 667 0
-648 667 0
666 648 -667 0
69 177 -670 0
-69 177 670 0
69 -177 670 0
-69 -177 -670 0
670 667 -285 0
-670 667 285 0
670 -667 285 0
-670 -667 -285 0
667 -671 0
670 -671 0
-667 -670 671 0
177 -672 0
69 -672 0
-177 -69 672 0
-671 669 0
-672 669 0
671 672 -669 0
70 178 -674 0
-70 178 674 0
70 -178 674 0
-70 -178 -674 0
674 669 -286 0
-674 669 286 0
674 -669 286 0
-674 -669 -286 0
669 -675 0
674 -675 0
-669 -674 675 0
178 -676 0
70 -676 0
-178 -70 676 0
-675 673 0
-676 673 0
675 676 -673 0
71 179 -678 0
-71 179 678 0
71 -179 678 0
-71 -179 -678 0
678 673 -287 0
-678 673 287 0
678 -673 287 0
-678 -673 -287 0
673 -679 0
678 -679 0
-673 -678 679 0
179 -680 0
71 -680 0
-179 -71 680 0
-679 677 0
-680 677 0
679 680 -677 0
72 180 -681 0
-72 180 681 0
72 -180 681 0
-72 -180 -681 0
681 677 -288 0
-681 677 288 0
681 -677 288 0
-681 -677 -288 0
677 -682 0
681 -682 0
-677 -681 682 0
180 -683 0
72 -683 0
-180 -72 683 0
-682 668 0
-683 668 0
682 683 -668 0
670 -684 0
674 -684 0
678 -684 0
681 -684 0
-670 -674 -678 -681 684 0
683 -685 0
-683 685 0
667 -686 0
684 -686 0
-667 -684 686 0
-686 687 0
-668 687 0
686 668 -687 0
73 181 -690 0
-73 181 690 0
73 -181 690 0
-73 -181 -690 0
690 687 -289 0
-690 687 289 0
690 -687 289 0
-690 -687 -289 0
687 -691 0
690 -691 0
-687 -690 691 0
181 -692 0
73 -692 0
-181 -73 692 0
-691 689 0
-692 689 0
691 692 -689 0
74 182 -694 0
-74 182 694 0
74 -182 694 0
-74 -182 -694 0
694 689 -290 0
-694 689 290 0
694 -689 290 0
-694 -689 -290 0
689 -695 0
694 -695 0
-689 -694 695 0
182 -696 0
74 -696 0
-182 -74 696 0
-695 693 0
-696 693 0
695 696 -693 0
75 183 -698 0
-75 183 698 0
75 -183 698 0
-75 -183 -698 0
698 693 -291 0
-698 693 291 0
698 -693 291 0
-698 -693 -291 0
693 -699 0
698 -699 0
-693 -698 699 0
183 -700 0
75 -700 0
-183 -75 700 0
-699 697 0
-700 697 0
699 700 -697 0
76 184 -701 0
-76 184 701 0
76 -184 701 0
-76 -184 -701 0
701 697 -292 0
-701 697 292 0
701 -697 292 0
-701 -697 -292 0
697 -702 0
701 -702 0
-697 -701 702 0
184 -703 0
76 -703 0
-184 -76 703 0
-702 688 0
-703 688 0
702 703 -688 0
690 -704 0
694 -704 0
698 -704 0
701 -704 0
-690 -694 -698 -701 704 0
703 -705 0
-703 705 0
687 -706 0
704 -706 0
-687 -704 706 0
-706 707 0
-688 707 0
706 688 -707 0
77 185 -710 0
-77 185 710 0
77 -185 710 0
-77 -185 -710 0
710 707 -293 0
-710 707 293 0
710 -707 293 0
-710 -707 -293 0
707 -711 0
710 -711 0
-707 -710 711 0
185 -712 0
77 -712 0
-185 -77 712 0
-711 709 0
-712 709 0
711 712 -709 0
78 186 -714 0
-78 186 714 0
78 -186 714 0
-78 -186 -714 0
714 709 -294 0
-714 709 294 0
714 -709 294 0
-714 -709 -294 0
709 -715 0
714 -715 0
-709 -714 715 0
186 -716 0
78 -716 0
-186 -78 716 0
-715 713 0
-716 713 0
715 716 -713 0
79 187 -718 0
-79 187 718 0
79 -187 718 0
-79 -187 -718 0
718 713 -295 0
-718 713 295 0
718 -713 295 0
-718 -713 -295 0
713 -719 0
718 -719 0
-713 -718 719 0
187 -720 0
79 -720 0
-187 -79 720 0
-719 717 0
-720 717 0
719 720 -717 0
80 188 -721 0
-80 188 721 0
80 -188 721 0
-80 -188 -721 0
721 717 -296 0
-721 717 296 0
721 -717 296 0
-721 -717 -296 0
717 -722 0
721 -722 0
-717 -721 722 0
188 -723 0
80 -723 0
-188 -80 723 0
-722 708 0
-723 708 0
722 723 -708 0
710 -724 0
714 -724 0
718 -724 0
721 -724 0
-710 -714 -718 -721 724 0
723 -725 0
-723 725 0
707 -726 0
724 -726 0
-707 -724 726 0
-726 727 0
-708 727 0
726 708 -727 0
81 189 -730 0
-81 189 730 0
81 -189 730 0
-81 -189 -730 0
730 727 -297 0
-730 727 297 0
730 -727 297 0
-730 -727 -297 0
727 -731 0
730 -731 0
-727 -730 731 0
189 -732 0
81 -732 0
-189 -81 732 0
-731 729 0
-732 729 0
731 732 -729 0
82 190 -734 0
-82 190 734 0
82 -190 734 0
-82 -190 -734 0
734 729 -298 0
-734 729 298 0
734 -729 298 0
-734 -729 -298 0
729 -735 0
734 -735 0
-729 -734 735 0
190 -736 0
82 -736 0
-190 -82 736 0
-735 733 0
-736 733 0
735 736 -733 0
83 191 -738 0
-83 191 738 0
83 -191 738 0
-83 -191 -738 0
738 733 -299 0
-738 733 299 0
738 -733 299 0
-738 -733 -299 0
733 -739 0
738 -739 0
-733 -738 739 0
191 -740 0
83 -740 0
-191 -83 740 0
-739 737 0
-740 737 0
739 740 -737 0
84 192 -741 0
-84 192 741 0
84 -192 741 0
-84 -192 -741 0
741 737 -300 0
-741 737 300 0
741 -737 300 0
-741 -737 -300 0
737 -742 0
741 -742 0
-737 -741 742 0
192 -743 0
84 -743 0
-192 -84 743 0
-742 728 0
-743 728 0
742 743 -728 0
730 -744 0
734 -744 0
738 -744 0
741 -744 0
-730 -734 -738 -741 744 0
743 -745 0
-743 745 0
727 -746 0
744 -746 0
-727 -744 746 0
-746 747 0
-728 747 0
746 728 -747 0
85 193 -750 0
-85 193 750 0
85 -193 750 0
-85 -193 -750 0
750 747 -301 0
-750 747 301 0
750 -747 301 0
-750 -747 -301 0
747 -751 0
750 -751 0
-747 -750 751 0
193 -752 0
85 -752 0
-193 -85 752 0
-751 749 0
-752 749 0
751 752 -749 0
86 194 -754 0
-86 194 754 0
86 -194 754 0
-86 -194 -754 0
754 749 -302 0
-754 749 302 0
754 -749 302 0
-754 -749 -302 0
749 -755 0
754 -755 0
-749 -754 755 0
194 -756 0
86 -756 0
-194 -86 756 0
-755 753 0
-756 753 0
755 756 -753 0
87 195 -758 0
-87 195 758 0
87 -195 758 0
-87 -195 -758 0
758 753 -303 0
-758 753 303 0
758 -753 303 0
-758 -753 -303 0
753 -759 0
758 -759 0
-753 -758 759 0
195 -760 0
87 -760 0
-195 -87 760 0
-759 757 0
-760 757 0
759 760 -757 0
88 196 -761 0
-88 196 761 0
88 -196 761 0
-88 -196 -761 0
761 757 -304 0
-761 757 304 0
761 -757 304 0
-761 -757 -304 0
757 -762 0
761 -762 0
-757 -761 762 0
196 -763 0
88 -763 0
-196 -88 763 0
-762 748 0
-763 748 0
762 763 -748 0
750 -764 0
754 -764 0
758 -764 0
761 -764 0
-750 -754 -758 -761 764 0
763 -765 0
-763 765 0
747 -766 0
764 -766 0
-747 -764 766 0
-766 767 0
-748 767 0
766 748 -767 0
89 197 -770 0
-89 197 770 0
89 -197 770 0
-89 -197 -770 0
770 767 -305 0
-770 767 305 0
770 -767 305 0
-770 -767 -305 0
767 -771 0
770 -771 0
-767 -770 771 0
197 -772 0
89 -772 0
-197 -89 772 0
-771 769 0
-772 769 0
771 772 -769 0
90 198 -774 0
-90 198 774 0
90 -198 774 0
-90 -198 -774 0
774 769 -306 0
-774 769 306 0
774 -769 306 0
-774 -769 -306 0
769 -775 0
774 -775 0
-769 -774 775 0
198 -776 0
90 -776 0
-198 -90 776 0
-775 773 0
-776 773 0
775 776 -773 0
91 199 -778 0
-91 199 778 0
91 -199 778 0
-91 -199 -778 0
778 773 -307 0
-778 773 307 0
778 -773 307 0
-778 -773 -307 0
773 -779 0
778 -779 0
-773 -778 779 0
199 -780 0
91 -780 0
-199 -91 780 0
-779 777 0
-780 777 0
779 780 -777 0
92 200 -781 0
-92 200 781 0
92 -200 781 0
-92 -200 -781 0
781 777 -308 0
-781 777 308 0
781 -777 308 0
-781 -777 -308 0
777 -782 0
781 -782 0
-777 -781 782 0
200 -783 0
92 -783 0
-200 -92 783 0
-782 768 0
-783 768 0
782 783 -768 0
770 -784 0
774 -784 0
778 -784 0
781 -784 0
-770 -774 -778 -781 784 0
783 -785 0
-783 785 0
767 -786 0
784 -786 0
-767 -784 786 0
-786 787 0
-768 787 0
786 768 -787 0
93 201 -790 0
-93 201 790 0
93 -201 790 0
-93 -201 -790 0
790 787 -309 0
-790 787 309 0
790 -787 309 0
-790 -787 -309 0
787 -791 0
790 -791 0
-787 -790 791 0
201 -792 0
93 -792 0
-201 -93 792 0
-791 789 0
-792 789 0
791 792 -789 0
94 202 -794 0
-94 202 794 0
94 -202 794 0
-94 -202 -794 0
794 789 -310 0
-794 789 310 0
794 -789 310 0
-794 -789 -310 0
789 -795 0
794 -795 0
-789 -794 795 0
202 -796 0
94 -796 0
-202 -94 796 0
-795 793 0
-796 793 0
795 796 -793 0
95 203 -798 0
-95 203 798 0
95 -203 798 0
-95 -203 -798 0
798 793 -311 0
-798 793 311 0
798 -793 311 0
-798 -793 -311 0
793 -799 0
798 -799 0
-793 -798 799 0
203 -800 0
95 -800 0
-203 -95 800 0
-799 797 0
-800 797 0
799 800 -797 0
96 204 -801 0
-96 204 801 0
96 -204 801 0
-96 -204 -801 0
801 797 -312 0
-801 797 312 0
801 -797 312 0
-801 -797 -312 0
797 -802 0
801 -802 0
-797 -801 802 0
204 -803 0
96 -803 0
-204 -96 803 0
-802 788 0
-803 788 0
802 803 -788 0
790 -804 0
794 -804 0
798 -804 0
801 -804 0
-790 -794 -798 -801 804 0
803 -805 0
-803 805 0
787 -806 0
804 -806 0
-787 -804 806 0
-806 807 0
-788 807 0
806 788 -807 0
97 205 -810 0
-97 205 810 0
97 -205 810 0
-97 -205 -810 0
810 807 -313 0
-810 807 313 0
810 -807 313 0
-810 -807 -313 0
807 -811 0
810 -811 0
-807 -810 811 0
205 -812 0
97 -812 0
-205 -97 812 0
-811 809 0
-812 809 0
811 812 -809 0
98 206 -814 0
-98 206 814 0
98 -206 814 0
-98 -206 -814 0
814 809 -314 0
-814 809 314 0
814 -809 314 0
-814 -809 -314 0
809 -815 0
814 -815 0
-809 -814 815 0
206 -816 0
98 -816 0
-206 -98 816 0
-815 813 0
-816 813 0
815 816 -813 0
99 207 -818 0
-99 207 818 0
99 -207 818 0
-99 -207 -818 0
818 813 -315 0
-818 813 315 0
818 -813 315 0
-818 -813 -315 0
813 -819 0
818 -819 0
-813 -818 819 0
207 -820 0
99 -820 0
-207 -99 820 0
-819 817 0
-820 817 0
819 820 -817 0
100 208 -821 0
-100 208 821 0
100 -208 821 0
-100 -208 -821 0
821 817 -316 0
-821 817 316 0
821 -817 316 0
-821 -817 -316 0
817 -822 0
821 -822 0
-817 -821 822 0
208 -823 0
100 -823 0
-208 -100 823 0
-822 808 0
-823 808 0
822 823 -808 0
810 -824 0
814 -824 0
818 -824 0
821 -824 0
-810 -814 -818 -821 824 0
823 -825 0
-823 825 0
807 -826 0
824 -826 0
-807 -824 826 0
-826 827 0
-808 827 0
826 808 -827 0
101 209 -830 0
-101 209 830 0
101 -209 830 0
-101 -209 -830 0
830 827 -317 0
-830 827 317 0
830 -827 317 0
-830 -827 -317 0
827 -831 0
830 -831 0
-827 -830 831 0
209 -832 0
101 -832 0
-209 -101 832 0
-831 829 0
-832 829 0
831 832 -829 0
102 210 -834 0
-102 210 834 0
102 -210 834 0
-102 -210 -834 0
834 829 -318 0
-834 829 318 0
834 -829 318 0
-834 -829 -318 0
829 -835 0
834 -835 0
-829 -834 835 0
210 -836 0
102 -836 0
-210 -102 836 0
-835 833 0
-836 833 0
835 836 -833 0
103 211 -838 0
-103 211 838 0
103 -211 838 0
-103 -211 -838 0
838 833 -319 0
-838 833 319 0
838 -833 319 0
-838 -833 -319 0
833 -839 0
838 -839 0
-833 -838 839 0
211 -840 0
103 -840 0
-211 -103 840 0
-839 837 0
-840 837 0
839 840 -837 0
104 212 -841 0
-104 212 841 0
104 -212 841 0
-104 -212 -841 0
841 837 -320 0
-841 837 320 0
841 -837 320 0
-841 -837 -320 0
837 -842 0
841 -842 0
-837 -841 842 0
212 -843 0
104 -843 0
-212 -104 843 0
-842 828 0
-843 828 0
842 843 -828 0
830 -844 0
834 -844 0
838 -844 0
841 -844 0
-830 -834 -838 -841 844 0
843 -845 0
-843 845 0
827 -846 0
844 -846 0
-827 -844 846 0
-846 847 0
-828 847 0
846 828 -847 0
105 213 -850 0
-105 213 850 0
105 -213 850 0
-105 -213 -850 0
850 847 -321 0
-850 847 321 0
850 -847 321 0
-850 -847 -321 0
847 -851 0
850 -851 0
-847 -850 851 0
213 -852 0
105 -852 0
-213 -105 852 0
-851 849 0
-852 849 0
851 852 -849 0
106 214 -854 0
-106 214 854 0
106 -214 854 0
-106 -214 -854 0
854 849 -322 0
-854 849 322 0
854 -849 322 0
-854 -849 -322 0
849 -855 0
854 -855 0
-849 -854 855 0
214 -856 0
106 -856 0
-214 -106 856 0
-855 853 0
-856 853 0
855 856 -853 0
107 215 -858 0
-107 215 858 0
107 -215 858 0
-107 -215 -858 0
858 853 -323 0
-858 853 323 0
858 -853 323 0
-858 -853 -323 0
853 -859 0
858 -859 0
-853 -858 859 0
215 -860 0
107 -860 0
-215 -107 860 0
-859 857 0
-860 857 0
859 860 -857 0
108 216 -861 0
-108 216 861 0
108 -216 861 0
-108 -216 -861 0
861 857 -324 0
-861 857 324 0
861 -857 324 0
-861 -857 -324 0
857 -862 0
861 -862 0
-857 -861 862 0
216 -863 0
108 -863 0
-216 -108 863 0
-862 848 0
-863 848 0
862 863 -848 0
850 -864 0
854 -864 0
858 -864 0
861 -864 0
-850 -854 -858 -861 864 0
863 -865 0
-863 865 0
847 -866 0
864 -866 0
-847 -864 866 0
-866 867 0
-848 867 0
866 848 -867 0
867 -325 0
-867 325 0
